; Benchmark for LTL-sketching problem
(set-logic QF_UF)
(set-info :status unknown)
(declare-fun z_2_0 () Bool)
(declare-fun z_1_0 () Bool)
(declare-fun z_0_0 () Bool)
(declare-fun z_2_1 () Bool)
(declare-fun z_1_1 () Bool)
(declare-fun z_0_1 () Bool)
(declare-fun z_2_2 () Bool)
(declare-fun z_1_2 () Bool)
(declare-fun z_0_2 () Bool)
(declare-fun z_2_3 () Bool)
(declare-fun z_1_3 () Bool)
(declare-fun z_0_3 () Bool)
(declare-fun z_2_4 () Bool)
(declare-fun z_1_4 () Bool)
(declare-fun z_0_4 () Bool)
(declare-fun z_2_5 () Bool)
(declare-fun z_1_5 () Bool)
(declare-fun z_0_5 () Bool)
(declare-fun z_2_6 () Bool)
(declare-fun z_1_6 () Bool)
(declare-fun z_0_6 () Bool)
(declare-fun z_2_7 () Bool)
(declare-fun z_1_7 () Bool)
(declare-fun z_0_7 () Bool)
(declare-fun z_2_8 () Bool)
(declare-fun z_1_8 () Bool)
(declare-fun z_0_8 () Bool)
(declare-fun z_2_9 () Bool)
(declare-fun z_1_9 () Bool)
(declare-fun z_0_9 () Bool)
(declare-fun z_2_10 () Bool)
(declare-fun z_1_10 () Bool)
(declare-fun z_0_10 () Bool)
(declare-fun z_2_11 () Bool)
(declare-fun z_1_11 () Bool)
(declare-fun z_0_11 () Bool)
(declare-fun z_2_12 () Bool)
(declare-fun z_1_12 () Bool)
(declare-fun z_0_12 () Bool)
(declare-fun z_2_13 () Bool)
(declare-fun z_1_13 () Bool)
(declare-fun z_0_13 () Bool)
(declare-fun z_2_14 () Bool)
(declare-fun z_1_14 () Bool)
(declare-fun z_0_14 () Bool)
(declare-fun z_2_15 () Bool)
(declare-fun z_1_15 () Bool)
(declare-fun z_0_15 () Bool)
(declare-fun z_2_16 () Bool)
(declare-fun z_1_16 () Bool)
(declare-fun z_0_16 () Bool)
(declare-fun z_2_17 () Bool)
(declare-fun z_1_17 () Bool)
(declare-fun z_0_17 () Bool)
(declare-fun z_2_18 () Bool)
(declare-fun z_1_18 () Bool)
(declare-fun z_0_18 () Bool)
(declare-fun z_2_19 () Bool)
(declare-fun z_1_19 () Bool)
(declare-fun z_0_19 () Bool)
(declare-fun z_2_20 () Bool)
(declare-fun z_1_20 () Bool)
(declare-fun z_0_20 () Bool)
(declare-fun z_2_21 () Bool)
(declare-fun z_1_21 () Bool)
(declare-fun z_0_21 () Bool)
(declare-fun z_2_22 () Bool)
(declare-fun z_1_22 () Bool)
(declare-fun z_0_22 () Bool)
(declare-fun z_2_23 () Bool)
(declare-fun z_1_23 () Bool)
(declare-fun z_0_23 () Bool)
(declare-fun z_2_24 () Bool)
(declare-fun z_1_24 () Bool)
(declare-fun z_0_24 () Bool)
(declare-fun z_2_25 () Bool)
(declare-fun z_1_25 () Bool)
(declare-fun z_0_25 () Bool)
(declare-fun z_2_26 () Bool)
(declare-fun z_1_26 () Bool)
(declare-fun z_0_26 () Bool)
(declare-fun z_2_27 () Bool)
(declare-fun z_1_27 () Bool)
(declare-fun z_0_27 () Bool)
(declare-fun z_2_28 () Bool)
(declare-fun z_1_28 () Bool)
(declare-fun z_0_28 () Bool)
(declare-fun z_2_29 () Bool)
(declare-fun z_1_29 () Bool)
(declare-fun z_0_29 () Bool)
(declare-fun z_2_30 () Bool)
(declare-fun z_1_30 () Bool)
(declare-fun z_0_30 () Bool)
(declare-fun z_2_31 () Bool)
(declare-fun z_1_31 () Bool)
(declare-fun z_0_31 () Bool)
(declare-fun z_2_32 () Bool)
(declare-fun z_1_32 () Bool)
(declare-fun z_0_32 () Bool)
(declare-fun z_2_33 () Bool)
(declare-fun z_1_33 () Bool)
(declare-fun z_0_33 () Bool)
(declare-fun z_2_34 () Bool)
(declare-fun z_1_34 () Bool)
(declare-fun z_0_34 () Bool)
(declare-fun z_2_35 () Bool)
(declare-fun z_1_35 () Bool)
(declare-fun z_0_35 () Bool)
(declare-fun z_2_36 () Bool)
(declare-fun z_1_36 () Bool)
(declare-fun z_0_36 () Bool)
(declare-fun z_2_37 () Bool)
(declare-fun z_1_37 () Bool)
(declare-fun z_0_37 () Bool)
(declare-fun z_2_38 () Bool)
(declare-fun z_1_38 () Bool)
(declare-fun z_0_38 () Bool)
(declare-fun z_2_39 () Bool)
(declare-fun z_1_39 () Bool)
(declare-fun z_0_39 () Bool)
(declare-fun z_2_40 () Bool)
(declare-fun z_1_40 () Bool)
(declare-fun z_0_40 () Bool)
(declare-fun z_2_41 () Bool)
(declare-fun z_1_41 () Bool)
(declare-fun z_0_41 () Bool)
(declare-fun z_2_42 () Bool)
(declare-fun z_1_42 () Bool)
(declare-fun z_0_42 () Bool)
(declare-fun z_2_43 () Bool)
(declare-fun z_1_43 () Bool)
(declare-fun z_0_43 () Bool)
(declare-fun z_2_44 () Bool)
(declare-fun z_1_44 () Bool)
(declare-fun z_0_44 () Bool)
(declare-fun z_2_45 () Bool)
(declare-fun z_1_45 () Bool)
(declare-fun z_0_45 () Bool)
(declare-fun z_2_46 () Bool)
(declare-fun z_1_46 () Bool)
(declare-fun z_0_46 () Bool)
(declare-fun z_2_47 () Bool)
(declare-fun z_1_47 () Bool)
(declare-fun z_0_47 () Bool)
(declare-fun z_2_48 () Bool)
(declare-fun z_1_48 () Bool)
(declare-fun z_0_48 () Bool)
(declare-fun z_2_49 () Bool)
(declare-fun z_1_49 () Bool)
(declare-fun z_0_49 () Bool)
(declare-fun z_2_50 () Bool)
(declare-fun z_1_50 () Bool)
(declare-fun z_0_50 () Bool)
(declare-fun z_2_51 () Bool)
(declare-fun z_1_51 () Bool)
(declare-fun z_0_51 () Bool)
(declare-fun z_2_52 () Bool)
(declare-fun z_1_52 () Bool)
(declare-fun z_0_52 () Bool)
(declare-fun z_2_53 () Bool)
(declare-fun z_1_53 () Bool)
(declare-fun z_0_53 () Bool)
(declare-fun z_2_54 () Bool)
(declare-fun z_1_54 () Bool)
(declare-fun z_0_54 () Bool)
(declare-fun z_2_55 () Bool)
(declare-fun z_1_55 () Bool)
(declare-fun z_0_55 () Bool)
(declare-fun z_2_56 () Bool)
(declare-fun z_1_56 () Bool)
(declare-fun z_0_56 () Bool)
(declare-fun z_2_57 () Bool)
(declare-fun z_1_57 () Bool)
(declare-fun z_0_57 () Bool)
(declare-fun z_2_58 () Bool)
(declare-fun z_1_58 () Bool)
(declare-fun z_0_58 () Bool)
(declare-fun z_2_59 () Bool)
(declare-fun z_1_59 () Bool)
(declare-fun z_0_59 () Bool)
(declare-fun z_2_60 () Bool)
(declare-fun z_1_60 () Bool)
(declare-fun z_0_60 () Bool)
(declare-fun z_2_61 () Bool)
(declare-fun z_1_61 () Bool)
(declare-fun z_0_61 () Bool)
(declare-fun z_2_62 () Bool)
(declare-fun z_1_62 () Bool)
(declare-fun z_0_62 () Bool)
(declare-fun z_2_63 () Bool)
(declare-fun z_1_63 () Bool)
(declare-fun z_0_63 () Bool)
(declare-fun z_2_64 () Bool)
(declare-fun z_1_64 () Bool)
(declare-fun z_0_64 () Bool)
(declare-fun z_2_65 () Bool)
(declare-fun z_1_65 () Bool)
(declare-fun z_0_65 () Bool)
(declare-fun z_2_66 () Bool)
(declare-fun z_1_66 () Bool)
(declare-fun z_0_66 () Bool)
(declare-fun z_2_67 () Bool)
(declare-fun z_1_67 () Bool)
(declare-fun z_0_67 () Bool)
(declare-fun z_2_68 () Bool)
(declare-fun z_1_68 () Bool)
(declare-fun z_0_68 () Bool)
(declare-fun z_2_69 () Bool)
(declare-fun z_1_69 () Bool)
(declare-fun z_0_69 () Bool)
(declare-fun z_2_70 () Bool)
(declare-fun z_1_70 () Bool)
(declare-fun z_0_70 () Bool)
(declare-fun z_2_71 () Bool)
(declare-fun z_1_71 () Bool)
(declare-fun z_0_71 () Bool)
(declare-fun z_2_72 () Bool)
(declare-fun z_1_72 () Bool)
(declare-fun z_0_72 () Bool)
(declare-fun z_2_73 () Bool)
(declare-fun z_1_73 () Bool)
(declare-fun z_0_73 () Bool)
(declare-fun z_2_74 () Bool)
(declare-fun z_1_74 () Bool)
(declare-fun z_0_74 () Bool)
(declare-fun z_2_75 () Bool)
(declare-fun z_1_75 () Bool)
(declare-fun z_0_75 () Bool)
(declare-fun z_2_76 () Bool)
(declare-fun z_1_76 () Bool)
(declare-fun z_0_76 () Bool)
(declare-fun z_2_77 () Bool)
(declare-fun z_1_77 () Bool)
(declare-fun z_0_77 () Bool)
(declare-fun z_2_78 () Bool)
(declare-fun z_1_78 () Bool)
(declare-fun z_0_78 () Bool)
(declare-fun z_2_79 () Bool)
(declare-fun z_1_79 () Bool)
(declare-fun z_0_79 () Bool)
(declare-fun z_2_80 () Bool)
(declare-fun z_1_80 () Bool)
(declare-fun z_0_80 () Bool)
(declare-fun z_2_81 () Bool)
(declare-fun z_1_81 () Bool)
(declare-fun z_0_81 () Bool)
(declare-fun z_3_0 () Bool)
(declare-fun z_4_0 () Bool)
(declare-fun z_3_1 () Bool)
(declare-fun z_4_1 () Bool)
(declare-fun z_3_2 () Bool)
(declare-fun z_4_2 () Bool)
(declare-fun z_3_3 () Bool)
(declare-fun z_4_3 () Bool)
(declare-fun z_3_4 () Bool)
(declare-fun z_4_4 () Bool)
(declare-fun z_3_5 () Bool)
(declare-fun z_4_5 () Bool)
(declare-fun z_3_6 () Bool)
(declare-fun z_4_6 () Bool)
(declare-fun z_3_7 () Bool)
(declare-fun z_4_7 () Bool)
(declare-fun z_3_8 () Bool)
(declare-fun z_4_8 () Bool)
(declare-fun z_3_9 () Bool)
(declare-fun z_4_9 () Bool)
(declare-fun z_3_10 () Bool)
(declare-fun z_4_10 () Bool)
(declare-fun z_3_11 () Bool)
(declare-fun z_4_11 () Bool)
(declare-fun z_3_12 () Bool)
(declare-fun z_4_12 () Bool)
(declare-fun z_3_13 () Bool)
(declare-fun z_4_13 () Bool)
(declare-fun z_3_14 () Bool)
(declare-fun z_4_14 () Bool)
(declare-fun z_3_15 () Bool)
(declare-fun z_4_15 () Bool)
(declare-fun z_3_16 () Bool)
(declare-fun z_4_16 () Bool)
(declare-fun z_3_17 () Bool)
(declare-fun z_4_17 () Bool)
(declare-fun z_3_18 () Bool)
(declare-fun z_4_18 () Bool)
(declare-fun z_3_19 () Bool)
(declare-fun z_4_19 () Bool)
(declare-fun z_3_20 () Bool)
(declare-fun z_4_20 () Bool)
(declare-fun z_3_21 () Bool)
(declare-fun z_4_21 () Bool)
(declare-fun z_3_22 () Bool)
(declare-fun z_4_22 () Bool)
(declare-fun z_3_23 () Bool)
(declare-fun z_4_23 () Bool)
(declare-fun z_3_24 () Bool)
(declare-fun z_4_24 () Bool)
(declare-fun z_4_25 () Bool)
(declare-fun z_3_26 () Bool)
(declare-fun z_4_26 () Bool)
(declare-fun z_3_27 () Bool)
(declare-fun z_4_27 () Bool)
(declare-fun z_3_28 () Bool)
(declare-fun z_4_28 () Bool)
(declare-fun z_3_29 () Bool)
(declare-fun z_4_29 () Bool)
(declare-fun z_3_30 () Bool)
(declare-fun z_4_30 () Bool)
(declare-fun z_3_31 () Bool)
(declare-fun z_4_31 () Bool)
(declare-fun z_3_32 () Bool)
(declare-fun z_4_32 () Bool)
(declare-fun z_3_33 () Bool)
(declare-fun z_4_33 () Bool)
(declare-fun z_3_34 () Bool)
(declare-fun z_4_34 () Bool)
(declare-fun z_3_35 () Bool)
(declare-fun z_4_35 () Bool)
(declare-fun z_3_36 () Bool)
(declare-fun z_4_36 () Bool)
(declare-fun z_3_37 () Bool)
(declare-fun z_4_37 () Bool)
(declare-fun z_3_38 () Bool)
(declare-fun z_4_38 () Bool)
(declare-fun z_3_39 () Bool)
(declare-fun z_4_39 () Bool)
(declare-fun z_3_40 () Bool)
(declare-fun z_4_40 () Bool)
(declare-fun z_3_41 () Bool)
(declare-fun z_4_41 () Bool)
(declare-fun z_3_42 () Bool)
(declare-fun z_4_42 () Bool)
(declare-fun z_3_43 () Bool)
(declare-fun z_4_43 () Bool)
(declare-fun z_3_44 () Bool)
(declare-fun z_4_44 () Bool)
(declare-fun z_3_45 () Bool)
(declare-fun z_4_45 () Bool)
(declare-fun z_3_46 () Bool)
(declare-fun z_4_46 () Bool)
(declare-fun z_3_47 () Bool)
(declare-fun z_4_47 () Bool)
(declare-fun z_3_48 () Bool)
(declare-fun z_4_48 () Bool)
(declare-fun z_3_49 () Bool)
(declare-fun z_4_49 () Bool)
(declare-fun z_3_50 () Bool)
(declare-fun z_4_50 () Bool)
(declare-fun z_3_51 () Bool)
(declare-fun z_4_51 () Bool)
(declare-fun z_3_52 () Bool)
(declare-fun z_4_52 () Bool)
(declare-fun z_3_53 () Bool)
(declare-fun z_4_53 () Bool)
(declare-fun z_3_54 () Bool)
(declare-fun z_4_54 () Bool)
(declare-fun z_3_55 () Bool)
(declare-fun z_4_55 () Bool)
(declare-fun z_3_56 () Bool)
(declare-fun z_4_56 () Bool)
(declare-fun z_3_57 () Bool)
(declare-fun z_4_57 () Bool)
(declare-fun z_3_58 () Bool)
(declare-fun z_4_58 () Bool)
(declare-fun z_3_59 () Bool)
(declare-fun z_4_59 () Bool)
(declare-fun z_3_60 () Bool)
(declare-fun z_4_60 () Bool)
(declare-fun z_3_61 () Bool)
(declare-fun z_4_61 () Bool)
(declare-fun z_3_62 () Bool)
(declare-fun z_4_62 () Bool)
(declare-fun z_3_63 () Bool)
(declare-fun z_4_63 () Bool)
(declare-fun z_3_64 () Bool)
(declare-fun z_4_64 () Bool)
(declare-fun z_3_65 () Bool)
(declare-fun z_4_65 () Bool)
(declare-fun z_3_66 () Bool)
(declare-fun z_4_66 () Bool)
(declare-fun z_3_67 () Bool)
(declare-fun z_4_67 () Bool)
(declare-fun z_3_68 () Bool)
(declare-fun z_4_68 () Bool)
(declare-fun z_3_69 () Bool)
(declare-fun z_4_69 () Bool)
(declare-fun z_3_70 () Bool)
(declare-fun z_4_70 () Bool)
(declare-fun z_3_71 () Bool)
(declare-fun z_4_71 () Bool)
(declare-fun z_3_72 () Bool)
(declare-fun z_4_72 () Bool)
(declare-fun z_3_73 () Bool)
(declare-fun z_4_73 () Bool)
(declare-fun z_3_74 () Bool)
(declare-fun z_4_74 () Bool)
(declare-fun z_3_75 () Bool)
(declare-fun z_4_75 () Bool)
(declare-fun z_3_76 () Bool)
(declare-fun z_4_76 () Bool)
(declare-fun z_3_77 () Bool)
(declare-fun z_4_77 () Bool)
(declare-fun z_3_78 () Bool)
(declare-fun z_4_78 () Bool)
(declare-fun z_3_79 () Bool)
(declare-fun z_4_79 () Bool)
(declare-fun z_3_80 () Bool)
(declare-fun z_4_80 () Bool)
(declare-fun z_3_81 () Bool)
(declare-fun z_4_81 () Bool)
(declare-fun z_3_25 () Bool)
(assert
 (= z_0_0 (=> z_1_0 z_2_0)))
(assert
 (= z_0_1 (=> z_1_1 z_2_1)))
(assert
 (= z_0_2 (=> z_1_2 z_2_2)))
(assert
 (= z_0_3 (=> z_1_3 z_2_3)))
(assert
 (= z_0_4 (=> z_1_4 z_2_4)))
(assert
 (= z_0_5 (=> z_1_5 z_2_5)))
(assert
 (= z_0_6 (=> z_1_6 z_2_6)))
(assert
 (= z_0_7 (=> z_1_7 z_2_7)))
(assert
 (= z_0_8 (=> z_1_8 z_2_8)))
(assert
 (= z_0_9 (=> z_1_9 z_2_9)))
(assert
 (= z_0_10 (=> z_1_10 z_2_10)))
(assert
 (= z_0_11 (=> z_1_11 z_2_11)))
(assert
 (= z_0_12 (=> z_1_12 z_2_12)))
(assert
 (= z_0_13 (=> z_1_13 z_2_13)))
(assert
 (= z_0_14 (=> z_1_14 z_2_14)))
(assert
 (= z_0_15 (=> z_1_15 z_2_15)))
(assert
 (= z_0_16 (=> z_1_16 z_2_16)))
(assert
 (= z_0_17 (=> z_1_17 z_2_17)))
(assert
 (= z_0_18 (=> z_1_18 z_2_18)))
(assert
 (= z_0_19 (=> z_1_19 z_2_19)))
(assert
 (= z_0_20 (=> z_1_20 z_2_20)))
(assert
 (= z_0_21 (=> z_1_21 z_2_21)))
(assert
 (= z_0_22 (=> z_1_22 z_2_22)))
(assert
 (= z_0_23 (=> z_1_23 z_2_23)))
(assert
 (= z_0_24 (=> z_1_24 z_2_24)))
(assert
 (= z_0_25 (=> z_1_25 z_2_25)))
(assert
 (= z_0_26 (=> z_1_26 z_2_26)))
(assert
 (= z_0_27 (=> z_1_27 z_2_27)))
(assert
 (= z_0_28 (=> z_1_28 z_2_28)))
(assert
 (= z_0_29 (=> z_1_29 z_2_29)))
(assert
 (= z_0_30 (=> z_1_30 z_2_30)))
(assert
 (= z_0_31 (=> z_1_31 z_2_31)))
(assert
 (= z_0_32 (=> z_1_32 z_2_32)))
(assert
 (= z_0_33 (=> z_1_33 z_2_33)))
(assert
 (= z_0_34 (=> z_1_34 z_2_34)))
(assert
 (= z_0_35 (=> z_1_35 z_2_35)))
(assert
 (= z_0_36 (=> z_1_36 z_2_36)))
(assert
 (= z_0_37 (=> z_1_37 z_2_37)))
(assert
 (= z_0_38 (=> z_1_38 z_2_38)))
(assert
 (= z_0_39 (=> z_1_39 z_2_39)))
(assert
 (= z_0_40 (=> z_1_40 z_2_40)))
(assert
 (= z_0_41 (=> z_1_41 z_2_41)))
(assert
 (= z_0_42 (=> z_1_42 z_2_42)))
(assert
 (= z_0_43 (=> z_1_43 z_2_43)))
(assert
 (= z_0_44 (=> z_1_44 z_2_44)))
(assert
 (= z_0_45 (=> z_1_45 z_2_45)))
(assert
 (= z_0_46 (=> z_1_46 z_2_46)))
(assert
 (= z_0_47 (=> z_1_47 z_2_47)))
(assert
 (= z_0_48 (=> z_1_48 z_2_48)))
(assert
 (= z_0_49 (=> z_1_49 z_2_49)))
(assert
 (= z_0_50 (=> z_1_50 z_2_50)))
(assert
 (= z_0_51 (=> z_1_51 z_2_51)))
(assert
 (= z_0_52 (=> z_1_52 z_2_52)))
(assert
 (= z_0_53 (=> z_1_53 z_2_53)))
(assert
 (= z_0_54 (=> z_1_54 z_2_54)))
(assert
 (= z_0_55 (=> z_1_55 z_2_55)))
(assert
 (= z_0_56 (=> z_1_56 z_2_56)))
(assert
 (= z_0_57 (=> z_1_57 z_2_57)))
(assert
 (= z_0_58 (=> z_1_58 z_2_58)))
(assert
 (= z_0_59 (=> z_1_59 z_2_59)))
(assert
 (= z_0_60 (=> z_1_60 z_2_60)))
(assert
 (= z_0_61 (=> z_1_61 z_2_61)))
(assert
 (= z_0_62 (=> z_1_62 z_2_62)))
(assert
 (= z_0_63 (=> z_1_63 z_2_63)))
(assert
 (= z_0_64 (=> z_1_64 z_2_64)))
(assert
 (= z_0_65 (=> z_1_65 z_2_65)))
(assert
 (= z_0_66 (=> z_1_66 z_2_66)))
(assert
 (= z_0_67 (=> z_1_67 z_2_67)))
(assert
 (= z_0_68 (=> z_1_68 z_2_68)))
(assert
 (= z_0_69 (=> z_1_69 z_2_69)))
(assert
 (= z_0_70 (=> z_1_70 z_2_70)))
(assert
 (= z_0_71 (=> z_1_71 z_2_71)))
(assert
 (= z_0_72 (=> z_1_72 z_2_72)))
(assert
 (= z_0_73 (=> z_1_73 z_2_73)))
(assert
 (= z_0_74 (=> z_1_74 z_2_74)))
(assert
 (= z_0_75 (=> z_1_75 z_2_75)))
(assert
 (= z_0_76 (=> z_1_76 z_2_76)))
(assert
 (= z_0_77 (=> z_1_77 z_2_77)))
(assert
 (= z_0_78 (=> z_1_78 z_2_78)))
(assert
 (= z_0_79 (=> z_1_79 z_2_79)))
(assert
 (= z_0_80 (=> z_1_80 z_2_80)))
(assert
 (= z_0_81 (=> z_1_81 z_2_81)))
(assert
 (= z_2_0 (or z_4_0 (and z_3_0 z_2_1))))
(assert
 (= z_2_1 (or z_4_1 (and z_3_1 z_2_2))))
(assert
 (= z_2_2 (or z_4_2 (and z_3_2 z_2_3))))
(assert
 (= z_2_3 (or z_4_3 (and z_3_3 z_2_4))))
(assert
 (= z_2_4 (or z_4_4 (and z_3_4 z_2_5))))
(assert
 (= z_2_5 (or z_4_5 (and z_3_5 z_2_6))))
(assert
 (= z_2_6 (or (and z_4_6) (and z_4_4 z_3_6) (and z_4_5 z_3_6 z_3_4))))
(assert
 (= z_2_7 (or z_4_7 (and z_3_7 z_2_8))))
(assert
 (= z_2_8 (or z_4_8 (and z_3_8 z_2_9))))
(assert
 (= z_2_9 (or z_4_9 (and z_3_9 z_2_10))))
(assert
 (= z_2_10 (or z_4_10 (and z_3_10 z_2_11))))
(assert
 (= z_2_11 (or z_4_11 (and z_3_11 z_2_12))))
(assert
 (let (($x748 (and z_4_11 z_3_12 z_3_9 z_3_10)))
 (let (($x747 (and z_4_10 z_3_12 z_3_9)))
 (let (($x746 (and z_4_9 z_3_12)))
 (= z_2_12 (or (and z_4_12) $x746 $x747 $x748))))))
(assert
 (= z_2_13 (or z_4_13 (and z_3_13 z_2_14))))
(assert
 (= z_2_14 (or z_4_14 (and z_3_14 z_2_15))))
(assert
 (= z_2_15 (or z_4_15 (and z_3_15 z_2_16))))
(assert
 (= z_2_16 (or z_4_16 (and z_3_16 z_2_17))))
(assert
 (= z_2_17 (or z_4_17 (and z_3_17 z_2_18))))
(assert
 (let (($x783 (and z_4_17 z_3_18 z_3_15 z_3_16)))
 (let (($x782 (and z_4_16 z_3_18 z_3_15)))
 (let (($x781 (and z_4_15 z_3_18)))
 (= z_2_18 (or (and z_4_18) $x781 $x782 $x783))))))
(assert
 (= z_2_19 (or z_4_19 (and z_3_19 z_2_20))))
(assert
 (= z_2_20 (or z_4_20 (and z_3_20 z_2_21))))
(assert
 (= z_2_21 (or z_4_21 (and z_3_21 z_2_22))))
(assert
 (= z_2_22 (or (and z_4_22) (and z_4_21 z_3_22))))
(assert
 (= z_2_23 (or z_4_23 (and z_3_23 z_2_24))))
(assert
 (= z_2_24 (or z_4_24 (and z_3_24 z_2_25))))
(assert
 (= z_2_25 (or (and z_4_25))))
(assert
 (= z_2_26 (or z_4_26 (and z_3_26 z_2_2))))
(assert
 (= z_2_27 (or z_4_27 (and z_3_27 z_2_28))))
(assert
 (= z_2_28 (or z_4_28 (and z_3_28 z_2_29))))
(assert
 (= z_2_29 (or z_4_29 (and z_3_29 z_2_26))))
(assert
 (= z_2_30 (or z_4_30 (and z_3_30 z_2_14))))
(assert
 (= z_2_31 (or z_4_31 (and z_3_31 z_2_3))))
(assert
 (= z_2_32 (or z_4_32 (and z_3_32 z_2_33))))
(assert
 (= z_2_33 (or z_4_33 (and z_3_33 z_2_34))))
(assert
 (= z_2_34 (or z_4_34 (and z_3_34 z_2_35))))
(assert
 (= z_2_35 (or z_4_35 (and z_3_35 z_2_36))))
(assert
 (= z_2_36 (or z_4_36 (and z_3_36 z_2_37))))
(assert
 (let (($x885 (and z_4_36 z_3_37 z_3_35)))
 (let (($x884 (and z_4_35 z_3_37)))
 (= z_2_37 (or (and z_4_37) $x884 $x885)))))
(assert
 (= z_2_38 (or z_4_38 (and z_3_38 z_2_39))))
(assert
 (= z_2_39 (or z_4_39 (and z_3_39 z_2_40))))
(assert
 (= z_2_40 (or z_4_40 (and z_3_40 z_2_41))))
(assert
 (= z_2_41 (or z_4_41 (and z_3_41 z_2_42))))
(assert
 (= z_2_42 (or z_4_42 (and z_3_42 z_2_43))))
(assert
 (let (($x920 (and z_4_42 z_3_43 z_3_40 z_3_41)))
 (let (($x919 (and z_4_41 z_3_43 z_3_40)))
 (let (($x918 (and z_4_40 z_3_43)))
 (= z_2_43 (or (and z_4_43) $x918 $x919 $x920))))))
(assert
 (= z_2_44 (or z_4_44 (and z_3_44 z_2_45))))
(assert
 (= z_2_45 (or z_4_45 (and z_3_45 z_2_46))))
(assert
 (= z_2_46 (or z_4_46 (and z_3_46 z_2_47))))
(assert
 (= z_2_47 (or z_4_47 (and z_3_47 z_2_48))))
(assert
 (= z_2_48 (or z_4_48 (and z_3_48 z_2_49))))
(assert
 (= z_2_49 (or z_4_49 (and z_3_49 z_2_50))))
(assert
 (let (($x959 (and z_4_49 z_3_50 z_3_48)))
 (let (($x958 (and z_4_48 z_3_50)))
 (= z_2_50 (or (and z_4_50) $x958 $x959)))))
(assert
 (= z_2_51 (or z_4_51 (and z_3_51 z_2_52))))
(assert
 (= z_2_52 (or z_4_52 (and z_3_52 z_2_53))))
(assert
 (= z_2_53 (or z_4_53 (and z_3_53 z_2_54))))
(assert
 (= z_2_54 (or z_4_54 (and z_3_54 z_2_55))))
(assert
 (= z_2_55 (or z_4_55 (and z_3_55 z_2_56))))
(assert
 (= z_2_56 (or z_4_56 (and z_3_56 z_2_57))))
(assert
 (let (($x999 (and z_4_56 z_3_57 z_3_54 z_3_55)))
 (let (($x998 (and z_4_55 z_3_57 z_3_54)))
 (let (($x997 (and z_4_54 z_3_57)))
 (= z_2_57 (or (and z_4_57) $x997 $x998 $x999))))))
(assert
 (= z_2_58 (or z_4_58 (and z_3_58 z_2_59))))
(assert
 (= z_2_59 (or z_4_59 (and z_3_59 z_2_60))))
(assert
 (= z_2_60 (or z_4_60 (and z_3_60 z_2_61))))
(assert
 (let (($x1024 (and z_4_60 z_3_61 z_3_58 z_3_59)))
 (let (($x1023 (and z_4_59 z_3_61 z_3_58)))
 (let (($x1022 (and z_4_58 z_3_61)))
 (= z_2_61 (or (and z_4_61) $x1022 $x1023 $x1024))))))
(assert
 (= z_2_62 (or z_4_62 (and z_3_62 z_2_63))))
(assert
 (= z_2_63 (or z_4_63 (and z_3_63 z_2_64))))
(assert
 (= z_2_64 (or z_4_64 (and z_3_64 z_2_65))))
(assert
 (= z_2_65 (or z_4_65 (and z_3_65 z_2_66))))
(assert
 (= z_2_66 (or z_4_66 (and z_3_66 z_2_67))))
(assert
 (let (($x1058 (and z_4_66 z_3_67 z_3_65)))
 (let (($x1057 (and z_4_65 z_3_67)))
 (= z_2_67 (or (and z_4_67) $x1057 $x1058)))))
(assert
 (= z_2_68 (or z_4_68 (and z_3_68 z_2_69))))
(assert
 (= z_2_69 (or z_4_69 (and z_3_69 z_2_70))))
(assert
 (= z_2_70 (or z_4_70 (and z_3_70 z_2_11))))
(assert
 (= z_2_71 (or z_4_71 (and z_3_71 z_2_72))))
(assert
 (= z_2_72 (or z_4_72 (and z_3_72 z_2_73))))
(assert
 (= z_2_73 (or z_4_73 (and z_3_73 z_2_74))))
(assert
 (= z_2_74 (or (and z_4_74) (and z_4_73 z_3_74))))
(assert
 (= z_2_75 (or z_4_75 (and z_3_75 z_2_76))))
(assert
 (= z_2_76 (or z_4_76 (and z_3_76 z_2_77))))
(assert
 (= z_2_77 (or z_4_77 (and z_3_77 z_2_6))))
(assert
 (= z_2_78 (or z_4_78 (and z_3_78 z_2_79))))
(assert
 (= z_2_79 (or z_4_79 (and z_3_79 z_2_80))))
(assert
 (= z_2_80 (or z_4_80 (and z_3_80 z_2_81))))
(assert
 (= z_2_81 (or z_4_81 (and z_3_81 z_2_37))))
(assert
 z_3_0)
(assert
 (not z_3_1))
(assert
 (not z_3_2))
(assert
 z_3_3)
(assert
 z_3_4)
(assert
 (not z_3_5))
(assert
 (not z_3_6))
(assert
 z_3_7)
(assert
 (not z_3_8))
(assert
 (not z_3_9))
(assert
 (not z_3_10))
(assert
 z_3_11)
(assert
 z_3_12)
(assert
 z_3_13)
(assert
 (not z_3_14))
(assert
 (not z_3_15))
(assert
 z_3_16)
(assert
 z_3_17)
(assert
 z_3_18)
(assert
 z_3_19)
(assert
 (not z_3_20))
(assert
 (not z_3_21))
(assert
 z_3_22)
(assert
 z_3_23)
(assert
 (not z_3_24))
(assert
 z_3_25)
(assert
 (not z_3_26))
(assert
 (not z_3_27))
(assert
 (not z_3_28))
(assert
 z_3_29)
(assert
 (not z_3_30))
(assert
 z_3_31)
(assert
 z_3_32)
(assert
 (not z_3_33))
(assert
 z_3_34)
(assert
 z_3_35)
(assert
 (not z_3_36))
(assert
 (not z_3_37))
(assert
 z_3_38)
(assert
 (not z_3_39))
(assert
 z_3_40)
(assert
 (not z_3_41))
(assert
 z_3_42)
(assert
 z_3_43)
(assert
 (not z_3_44))
(assert
 (not z_3_45))
(assert
 (not z_3_46))
(assert
 z_3_47)
(assert
 (not z_3_48))
(assert
 z_3_49)
(assert
 z_3_50)
(assert
 z_3_51)
(assert
 (not z_3_52))
(assert
 (not z_3_53))
(assert
 (not z_3_54))
(assert
 z_3_55)
(assert
 (not z_3_56))
(assert
 z_3_57)
(assert
 (not z_3_58))
(assert
 (not z_3_59))
(assert
 z_3_60)
(assert
 z_3_61)
(assert
 z_3_62)
(assert
 (not z_3_63))
(assert
 (not z_3_64))
(assert
 z_3_65)
(assert
 (not z_3_66))
(assert
 z_3_67)
(assert
 (not z_3_68))
(assert
 z_3_69)
(assert
 (not z_3_70))
(assert
 (not z_3_71))
(assert
 (not z_3_72))
(assert
 (not z_3_73))
(assert
 z_3_74)
(assert
 z_3_75)
(assert
 (not z_3_76))
(assert
 z_3_77)
(assert
 z_3_78)
(assert
 z_3_79)
(assert
 (not z_3_80))
(assert
 z_3_81)
(assert
 (not z_4_0))
(assert
 (not z_4_1))
(assert
 (not z_4_2))
(assert
 (not z_4_3))
(assert
 (not z_4_4))
(assert
 (not z_4_5))
(assert
 (not z_4_6))
(assert
 (not z_4_7))
(assert
 (not z_4_8))
(assert
 (not z_4_9))
(assert
 (not z_4_10))
(assert
 (not z_4_11))
(assert
 (not z_4_12))
(assert
 (not z_4_13))
(assert
 (not z_4_14))
(assert
 (not z_4_15))
(assert
 (not z_4_16))
(assert
 (not z_4_17))
(assert
 (not z_4_18))
(assert
 (not z_4_19))
(assert
 (not z_4_20))
(assert
 (not z_4_21))
(assert
 (not z_4_22))
(assert
 (not z_4_23))
(assert
 (not z_4_24))
(assert
 (not z_4_25))
(assert
 (not z_4_26))
(assert
 (not z_4_27))
(assert
 (not z_4_28))
(assert
 (not z_4_29))
(assert
 (not z_4_30))
(assert
 (not z_4_31))
(assert
 (not z_4_32))
(assert
 (not z_4_33))
(assert
 z_4_34)
(assert
 z_4_35)
(assert
 (not z_4_36))
(assert
 z_4_37)
(assert
 (not z_4_38))
(assert
 (not z_4_39))
(assert
 z_4_40)
(assert
 (not z_4_41))
(assert
 (not z_4_42))
(assert
 z_4_43)
(assert
 (not z_4_44))
(assert
 (not z_4_45))
(assert
 (not z_4_46))
(assert
 z_4_47)
(assert
 z_4_48)
(assert
 (not z_4_49))
(assert
 (not z_4_50))
(assert
 (not z_4_51))
(assert
 (not z_4_52))
(assert
 z_4_53)
(assert
 (not z_4_54))
(assert
 z_4_55)
(assert
 z_4_56)
(assert
 (not z_4_57))
(assert
 (not z_4_58))
(assert
 z_4_59)
(assert
 (not z_4_60))
(assert
 (not z_4_61))
(assert
 (not z_4_62))
(assert
 (not z_4_63))
(assert
 z_4_64)
(assert
 z_4_65)
(assert
 (not z_4_66))
(assert
 (not z_4_67))
(assert
 (not z_4_68))
(assert
 z_4_69)
(assert
 z_4_70)
(assert
 (not z_4_71))
(assert
 z_4_72)
(assert
 z_4_73)
(assert
 z_4_74)
(assert
 (not z_4_75))
(assert
 (not z_4_76))
(assert
 z_4_77)
(assert
 (not z_4_78))
(assert
 (not z_4_79))
(assert
 (not z_4_80))
(assert
 z_4_81)
(assert
 z_0_0)
(assert
 z_0_2)
(assert
 z_0_7)
(assert
 z_0_13)
(assert
 z_0_19)
(assert
 z_0_23)
(assert
 z_0_26)
(assert
 z_0_27)
(assert
 z_0_30)
(assert
 z_0_31)
(assert
 (not z_0_32))
(assert
 (not z_0_38))
(assert
 (not z_0_44))
(assert
 (not z_0_51))
(assert
 (not z_0_58))
(assert
 (not z_0_62))
(assert
 (not z_0_68))
(assert
 (not z_0_71))
(assert
 (not z_0_75))
(assert
 (not z_0_78))
(check-sat)

